(declare-fun version () String)


(assert ( > ( + ( - ( ite ( str.prefixof "-" ( str.substr ( str.substr ( str.substr version ( + ( str.indexof version "MSC v." 0  ) ( str.len "MSC v."  )  ) ( - ( str.len version  ) ( + ( str.indexof version "MSC v." 0  ) ( str.len "MSC v."  )  )  )  ) 0 ( - ( str.indexof ( str.substr version ( + ( str.indexof version "MSC v." 0  ) ( str.len "MSC v."  )  ) ( - ( str.len version  ) ( + ( str.indexof version "MSC v." 0  ) ( str.len "MSC v."  )  )  )  ) " " 0  ) 0  )  ) 0 ( - ( + ( str.len ( str.substr ( str.substr version ( + ( str.indexof version "MSC v." 0  ) ( str.len "MSC v."  )  ) ( - ( str.len version  ) ( + ( str.indexof version "MSC v." 0  ) ( str.len "MSC v."  )  )  )  ) 0 ( - ( str.indexof ( str.substr version ( + ( str.indexof version "MSC v." 0  ) ( str.len "MSC v."  )  ) ( - ( str.len version  ) ( + ( str.indexof version "MSC v." 0  ) ( str.len "MSC v."  )  )  )  ) " " 0  ) 0  )  )  ) (- 2)  ) 0  )  )  ) ( - ( str.to.int ( str.substr ( str.substr ( str.substr ( str.substr version ( + ( str.indexof version "MSC v." 0  ) ( str.len "MSC v."  )  ) ( - ( str.len version  ) ( + ( str.indexof version "MSC v." 0  ) ( str.len "MSC v."  )  )  )  ) 0 ( - ( str.indexof ( str.substr version ( + ( str.indexof version "MSC v." 0  ) ( str.len "MSC v."  )  ) ( - ( str.len version  ) ( + ( str.indexof version "MSC v." 0  ) ( str.len "MSC v."  )  )  )  ) " " 0  ) 0  )  ) 0 ( - ( + ( str.len ( str.substr ( str.substr version ( + ( str.indexof version "MSC v." 0  ) ( str.len "MSC v."  )  ) ( - ( str.len version  ) ( + ( str.indexof version "MSC v." 0  ) ( str.len "MSC v."  )  )  )  ) 0 ( - ( str.indexof ( str.substr version ( + ( str.indexof version "MSC v." 0  ) ( str.len "MSC v."  )  ) ( - ( str.len version  ) ( + ( str.indexof version "MSC v." 0  ) ( str.len "MSC v."  )  )  )  ) " " 0  ) 0  )  )  ) (- 2)  ) 0  )  ) 1 ( - ( str.len ( str.substr ( str.substr ( str.substr version ( + ( str.indexof version "MSC v." 0  ) ( str.len "MSC v."  )  ) ( - ( str.len version  ) ( + ( str.indexof version "MSC v." 0  ) ( str.len "MSC v."  )  )  )  ) 0 ( - ( str.indexof ( str.substr version ( + ( str.indexof version "MSC v." 0  ) ( str.len "MSC v."  )  ) ( - ( str.len version  ) ( + ( str.indexof version "MSC v." 0  ) ( str.len "MSC v."  )  )  )  ) " " 0  ) 0  )  ) 0 ( - ( + ( str.len ( str.substr ( str.substr version ( + ( str.indexof version "MSC v." 0  ) ( str.len "MSC v."  )  ) ( - ( str.len version  ) ( + ( str.indexof version "MSC v." 0  ) ( str.len "MSC v."  )  )  )  ) 0 ( - ( str.indexof ( str.substr version ( + ( str.indexof version "MSC v." 0  ) ( str.len "MSC v."  )  ) ( - ( str.len version  ) ( + ( str.indexof version "MSC v." 0  ) ( str.len "MSC v."  )  )  )  ) " " 0  ) 0  )  )  ) (- 2)  ) 0  )  )  ) 1  )  )  )  ) ( str.to.int ( str.substr ( str.substr ( str.substr version ( + ( str.indexof version "MSC v." 0  ) ( str.len "MSC v."  )  ) ( - ( str.len version  ) ( + ( str.indexof version "MSC v." 0  ) ( str.len "MSC v."  )  )  )  ) 0 ( - ( str.indexof ( str.substr version ( + ( str.indexof version "MSC v." 0  ) ( str.len "MSC v."  )  ) ( - ( str.len version  ) ( + ( str.indexof version "MSC v." 0  ) ( str.len "MSC v."  )  )  )  ) " " 0  ) 0  )  ) 0 ( - ( + ( str.len ( str.substr ( str.substr version ( + ( str.indexof version "MSC v." 0  ) ( str.len "MSC v."  )  ) ( - ( str.len version  ) ( + ( str.indexof version "MSC v." 0  ) ( str.len "MSC v."  )  )  )  ) 0 ( - ( str.indexof ( str.substr version ( + ( str.indexof version "MSC v." 0  ) ( str.len "MSC v."  )  ) ( - ( str.len version  ) ( + ( str.indexof version "MSC v." 0  ) ( str.len "MSC v."  )  )  )  ) " " 0  ) 0  )  )  ) (- 2)  ) 0  )  )  )  ) 6  ) 1  ) 7  ))

(assert (not ( < ( + ( - ( ite ( str.prefixof "-" ( str.substr ( str.substr ( str.substr version ( + ( str.indexof version "MSC v." 0  ) ( str.len "MSC v."  )  ) ( - ( str.len version  ) ( + ( str.indexof version "MSC v." 0  ) ( str.len "MSC v."  )  )  )  ) 0 ( - ( str.indexof ( str.substr version ( + ( str.indexof version "MSC v." 0  ) ( str.len "MSC v."  )  ) ( - ( str.len version  ) ( + ( str.indexof version "MSC v." 0  ) ( str.len "MSC v."  )  )  )  ) " " 0  ) 0  )  ) 0 ( - ( + ( str.len ( str.substr ( str.substr version ( + ( str.indexof version "MSC v." 0  ) ( str.len "MSC v."  )  ) ( - ( str.len version  ) ( + ( str.indexof version "MSC v." 0  ) ( str.len "MSC v."  )  )  )  ) 0 ( - ( str.indexof ( str.substr version ( + ( str.indexof version "MSC v." 0  ) ( str.len "MSC v."  )  ) ( - ( str.len version  ) ( + ( str.indexof version "MSC v." 0  ) ( str.len "MSC v."  )  )  )  ) " " 0  ) 0  )  )  ) (- 2)  ) 0  )  )  ) ( - ( str.to.int ( str.substr ( str.substr ( str.substr ( str.substr version ( + ( str.indexof version "MSC v." 0  ) ( str.len "MSC v."  )  ) ( - ( str.len version  ) ( + ( str.indexof version "MSC v." 0  ) ( str.len "MSC v."  )  )  )  ) 0 ( - ( str.indexof ( str.substr version ( + ( str.indexof version "MSC v." 0  ) ( str.len "MSC v."  )  ) ( - ( str.len version  ) ( + ( str.indexof version "MSC v." 0  ) ( str.len "MSC v."  )  )  )  ) " " 0  ) 0  )  ) 0 ( - ( + ( str.len ( str.substr ( str.substr version ( + ( str.indexof version "MSC v." 0  ) ( str.len "MSC v."  )  ) ( - ( str.len version  ) ( + ( str.indexof version "MSC v." 0  ) ( str.len "MSC v."  )  )  )  ) 0 ( - ( str.indexof ( str.substr version ( + ( str.indexof version "MSC v." 0  ) ( str.len "MSC v."  )  ) ( - ( str.len version  ) ( + ( str.indexof version "MSC v." 0  ) ( str.len "MSC v."  )  )  )  ) " " 0  ) 0  )  )  ) (- 2)  ) 0  )  ) 1 ( - ( str.len ( str.substr ( str.substr ( str.substr version ( + ( str.indexof version "MSC v." 0  ) ( str.len "MSC v."  )  ) ( - ( str.len version  ) ( + ( str.indexof version "MSC v." 0  ) ( str.len "MSC v."  )  )  )  ) 0 ( - ( str.indexof ( str.substr version ( + ( str.indexof version "MSC v." 0  ) ( str.len "MSC v."  )  ) ( - ( str.len version  ) ( + ( str.indexof version "MSC v." 0  ) ( str.len "MSC v."  )  )  )  ) " " 0  ) 0  )  ) 0 ( - ( + ( str.len ( str.substr ( str.substr version ( + ( str.indexof version "MSC v." 0  ) ( str.len "MSC v."  )  ) ( - ( str.len version  ) ( + ( str.indexof version "MSC v." 0  ) ( str.len "MSC v."  )  )  )  ) 0 ( - ( str.indexof ( str.substr version ( + ( str.indexof version "MSC v." 0  ) ( str.len "MSC v."  )  ) ( - ( str.len version  ) ( + ( str.indexof version "MSC v." 0  ) ( str.len "MSC v."  )  )  )  ) " " 0  ) 0  )  )  ) (- 2)  ) 0  )  )  ) 1  )  )  )  ) ( str.to.int ( str.substr ( str.substr ( str.substr version ( + ( str.indexof version "MSC v." 0  ) ( str.len "MSC v."  )  ) ( - ( str.len version  ) ( + ( str.indexof version "MSC v." 0  ) ( str.len "MSC v."  )  )  )  ) 0 ( - ( str.indexof ( str.substr version ( + ( str.indexof version "MSC v." 0  ) ( str.len "MSC v."  )  ) ( - ( str.len version  ) ( + ( str.indexof version "MSC v." 0  ) ( str.len "MSC v."  )  )  )  ) " " 0  ) 0  )  ) 0 ( - ( + ( str.len ( str.substr ( str.substr version ( + ( str.indexof version "MSC v." 0  ) ( str.len "MSC v."  )  ) ( - ( str.len version  ) ( + ( str.indexof version "MSC v." 0  ) ( str.len "MSC v."  )  )  )  ) 0 ( - ( str.indexof ( str.substr version ( + ( str.indexof version "MSC v." 0  ) ( str.len "MSC v."  )  ) ( - ( str.len version  ) ( + ( str.indexof version "MSC v." 0  ) ( str.len "MSC v."  )  )  )  ) " " 0  ) 0  )  )  ) (- 2)  ) 0  )  )  )  ) 6  ) 1  ) 6  )))

(assert (not ( = ( + ( - ( ite ( str.prefixof "-" ( str.substr ( str.substr ( str.substr version ( + ( str.indexof version "MSC v." 0  ) ( str.len "MSC v."  )  ) ( - ( str.len version  ) ( + ( str.indexof version "MSC v." 0  ) ( str.len "MSC v."  )  )  )  ) 0 ( - ( str.indexof ( str.substr version ( + ( str.indexof version "MSC v." 0  ) ( str.len "MSC v."  )  ) ( - ( str.len version  ) ( + ( str.indexof version "MSC v." 0  ) ( str.len "MSC v."  )  )  )  ) " " 0  ) 0  )  ) 0 ( - ( + ( str.len ( str.substr ( str.substr version ( + ( str.indexof version "MSC v." 0  ) ( str.len "MSC v."  )  ) ( - ( str.len version  ) ( + ( str.indexof version "MSC v." 0  ) ( str.len "MSC v."  )  )  )  ) 0 ( - ( str.indexof ( str.substr version ( + ( str.indexof version "MSC v." 0  ) ( str.len "MSC v."  )  ) ( - ( str.len version  ) ( + ( str.indexof version "MSC v." 0  ) ( str.len "MSC v."  )  )  )  ) " " 0  ) 0  )  )  ) (- 2)  ) 0  )  )  ) ( - ( str.to.int ( str.substr ( str.substr ( str.substr ( str.substr version ( + ( str.indexof version "MSC v." 0  ) ( str.len "MSC v."  )  ) ( - ( str.len version  ) ( + ( str.indexof version "MSC v." 0  ) ( str.len "MSC v."  )  )  )  ) 0 ( - ( str.indexof ( str.substr version ( + ( str.indexof version "MSC v." 0  ) ( str.len "MSC v."  )  ) ( - ( str.len version  ) ( + ( str.indexof version "MSC v." 0  ) ( str.len "MSC v."  )  )  )  ) " " 0  ) 0  )  ) 0 ( - ( + ( str.len ( str.substr ( str.substr version ( + ( str.indexof version "MSC v." 0  ) ( str.len "MSC v."  )  ) ( - ( str.len version  ) ( + ( str.indexof version "MSC v." 0  ) ( str.len "MSC v."  )  )  )  ) 0 ( - ( str.indexof ( str.substr version ( + ( str.indexof version "MSC v." 0  ) ( str.len "MSC v."  )  ) ( - ( str.len version  ) ( + ( str.indexof version "MSC v." 0  ) ( str.len "MSC v."  )  )  )  ) " " 0  ) 0  )  )  ) (- 2)  ) 0  )  ) 1 ( - ( str.len ( str.substr ( str.substr ( str.substr version ( + ( str.indexof version "MSC v." 0  ) ( str.len "MSC v."  )  ) ( - ( str.len version  ) ( + ( str.indexof version "MSC v." 0  ) ( str.len "MSC v."  )  )  )  ) 0 ( - ( str.indexof ( str.substr version ( + ( str.indexof version "MSC v." 0  ) ( str.len "MSC v."  )  ) ( - ( str.len version  ) ( + ( str.indexof version "MSC v." 0  ) ( str.len "MSC v."  )  )  )  ) " " 0  ) 0  )  ) 0 ( - ( + ( str.len ( str.substr ( str.substr version ( + ( str.indexof version "MSC v." 0  ) ( str.len "MSC v."  )  ) ( - ( str.len version  ) ( + ( str.indexof version "MSC v." 0  ) ( str.len "MSC v."  )  )  )  ) 0 ( - ( str.indexof ( str.substr version ( + ( str.indexof version "MSC v." 0  ) ( str.len "MSC v."  )  ) ( - ( str.len version  ) ( + ( str.indexof version "MSC v." 0  ) ( str.len "MSC v."  )  )  )  ) " " 0  ) 0  )  )  ) (- 2)  ) 0  )  )  ) 1  )  )  )  ) ( str.to.int ( str.substr ( str.substr ( str.substr version ( + ( str.indexof version "MSC v." 0  ) ( str.len "MSC v."  )  ) ( - ( str.len version  ) ( + ( str.indexof version "MSC v." 0  ) ( str.len "MSC v."  )  )  )  ) 0 ( - ( str.indexof ( str.substr version ( + ( str.indexof version "MSC v." 0  ) ( str.len "MSC v."  )  ) ( - ( str.len version  ) ( + ( str.indexof version "MSC v." 0  ) ( str.len "MSC v."  )  )  )  ) " " 0  ) 0  )  ) 0 ( - ( + ( str.len ( str.substr ( str.substr version ( + ( str.indexof version "MSC v." 0  ) ( str.len "MSC v."  )  ) ( - ( str.len version  ) ( + ( str.indexof version "MSC v." 0  ) ( str.len "MSC v."  )  )  )  ) 0 ( - ( str.indexof ( str.substr version ( + ( str.indexof version "MSC v." 0  ) ( str.len "MSC v."  )  ) ( - ( str.len version  ) ( + ( str.indexof version "MSC v." 0  ) ( str.len "MSC v."  )  )  )  ) " " 0  ) 0  )  )  ) (- 2)  ) 0  )  )  )  ) 6  ) 1  ) 6  )))

(assert ( ite ( str.prefixof "-" ( str.substr ( str.substr ( str.substr version ( + ( str.indexof version "MSC v." 0  ) ( str.len "MSC v."  )  ) ( - ( str.len version  ) ( + ( str.indexof version "MSC v." 0  ) ( str.len "MSC v."  )  )  )  ) 0 ( - ( str.indexof ( str.substr version ( + ( str.indexof version "MSC v." 0  ) ( str.len "MSC v."  )  ) ( - ( str.len version  ) ( + ( str.indexof version "MSC v." 0  ) ( str.len "MSC v."  )  )  )  ) " " 0  ) 0  )  ) 2 ( - 3 2  )  )  ) ( and ( ite ( = (- 1) ( str.to.int ( str.substr ( str.substr ( str.substr ( str.substr version ( + ( str.indexof version "MSC v." 0  ) ( str.len "MSC v."  )  ) ( - ( str.len version  ) ( + ( str.indexof version "MSC v." 0  ) ( str.len "MSC v."  )  )  )  ) 0 ( - ( str.indexof ( str.substr version ( + ( str.indexof version "MSC v." 0  ) ( str.len "MSC v."  )  ) ( - ( str.len version  ) ( + ( str.indexof version "MSC v." 0  ) ( str.len "MSC v."  )  )  )  ) " " 0  ) 0  )  ) 2 ( - 3 2  )  ) 1 ( - ( str.len ( str.substr ( str.substr ( str.substr version ( + ( str.indexof version "MSC v." 0  ) ( str.len "MSC v."  )  ) ( - ( str.len version  ) ( + ( str.indexof version "MSC v." 0  ) ( str.len "MSC v."  )  )  )  ) 0 ( - ( str.indexof ( str.substr version ( + ( str.indexof version "MSC v." 0  ) ( str.len "MSC v."  )  ) ( - ( str.len version  ) ( + ( str.indexof version "MSC v." 0  ) ( str.len "MSC v."  )  )  )  ) " " 0  ) 0  )  ) 2 ( - 3 2  )  )  ) 1  )  )  )  ) false true  ) ( > ( str.len ( str.substr ( str.substr ( str.substr version ( + ( str.indexof version "MSC v." 0  ) ( str.len "MSC v."  )  ) ( - ( str.len version  ) ( + ( str.indexof version "MSC v." 0  ) ( str.len "MSC v."  )  )  )  ) 0 ( - ( str.indexof ( str.substr version ( + ( str.indexof version "MSC v." 0  ) ( str.len "MSC v."  )  ) ( - ( str.len version  ) ( + ( str.indexof version "MSC v." 0  ) ( str.len "MSC v."  )  )  )  ) " " 0  ) 0  )  ) 2 ( - 3 2  )  )  ) 1  )  ) ( ite ( = (- 1) ( str.to.int ( str.substr ( str.substr ( str.substr version ( + ( str.indexof version "MSC v." 0  ) ( str.len "MSC v."  )  ) ( - ( str.len version  ) ( + ( str.indexof version "MSC v." 0  ) ( str.len "MSC v."  )  )  )  ) 0 ( - ( str.indexof ( str.substr version ( + ( str.indexof version "MSC v." 0  ) ( str.len "MSC v."  )  ) ( - ( str.len version  ) ( + ( str.indexof version "MSC v." 0  ) ( str.len "MSC v."  )  )  )  ) " " 0  ) 0  )  ) 2 ( - 3 2  )  )  )  ) false true  )  ))

(assert ( >= ( - ( ite ( str.prefixof "-" ( str.substr ( str.substr ( str.substr version ( + ( str.indexof version "MSC v." 0  ) ( str.len "MSC v."  )  ) ( - ( str.len version  ) ( + ( str.indexof version "MSC v." 0  ) ( str.len "MSC v."  )  )  )  ) 0 ( - ( str.indexof ( str.substr version ( + ( str.indexof version "MSC v." 0  ) ( str.len "MSC v."  )  ) ( - ( str.len version  ) ( + ( str.indexof version "MSC v." 0  ) ( str.len "MSC v."  )  )  )  ) " " 0  ) 0  )  ) 0 ( - ( + ( str.len ( str.substr ( str.substr version ( + ( str.indexof version "MSC v." 0  ) ( str.len "MSC v."  )  ) ( - ( str.len version  ) ( + ( str.indexof version "MSC v." 0  ) ( str.len "MSC v."  )  )  )  ) 0 ( - ( str.indexof ( str.substr version ( + ( str.indexof version "MSC v." 0  ) ( str.len "MSC v."  )  ) ( - ( str.len version  ) ( + ( str.indexof version "MSC v." 0  ) ( str.len "MSC v."  )  )  )  ) " " 0  ) 0  )  )  ) (- 2)  ) 0  )  )  ) ( - ( str.to.int ( str.substr ( str.substr ( str.substr ( str.substr version ( + ( str.indexof version "MSC v." 0  ) ( str.len "MSC v."  )  ) ( - ( str.len version  ) ( + ( str.indexof version "MSC v." 0  ) ( str.len "MSC v."  )  )  )  ) 0 ( - ( str.indexof ( str.substr version ( + ( str.indexof version "MSC v." 0  ) ( str.len "MSC v."  )  ) ( - ( str.len version  ) ( + ( str.indexof version "MSC v." 0  ) ( str.len "MSC v."  )  )  )  ) " " 0  ) 0  )  ) 0 ( - ( + ( str.len ( str.substr ( str.substr version ( + ( str.indexof version "MSC v." 0  ) ( str.len "MSC v."  )  ) ( - ( str.len version  ) ( + ( str.indexof version "MSC v." 0  ) ( str.len "MSC v."  )  )  )  ) 0 ( - ( str.indexof ( str.substr version ( + ( str.indexof version "MSC v." 0  ) ( str.len "MSC v."  )  ) ( - ( str.len version  ) ( + ( str.indexof version "MSC v." 0  ) ( str.len "MSC v."  )  )  )  ) " " 0  ) 0  )  )  ) (- 2)  ) 0  )  ) 1 ( - ( str.len ( str.substr ( str.substr ( str.substr version ( + ( str.indexof version "MSC v." 0  ) ( str.len "MSC v."  )  ) ( - ( str.len version  ) ( + ( str.indexof version "MSC v." 0  ) ( str.len "MSC v."  )  )  )  ) 0 ( - ( str.indexof ( str.substr version ( + ( str.indexof version "MSC v." 0  ) ( str.len "MSC v."  )  ) ( - ( str.len version  ) ( + ( str.indexof version "MSC v." 0  ) ( str.len "MSC v."  )  )  )  ) " " 0  ) 0  )  ) 0 ( - ( + ( str.len ( str.substr ( str.substr version ( + ( str.indexof version "MSC v." 0  ) ( str.len "MSC v."  )  ) ( - ( str.len version  ) ( + ( str.indexof version "MSC v." 0  ) ( str.len "MSC v."  )  )  )  ) 0 ( - ( str.indexof ( str.substr version ( + ( str.indexof version "MSC v." 0  ) ( str.len "MSC v."  )  ) ( - ( str.len version  ) ( + ( str.indexof version "MSC v." 0  ) ( str.len "MSC v."  )  )  )  ) " " 0  ) 0  )  )  ) (- 2)  ) 0  )  )  ) 1  )  )  )  ) ( str.to.int ( str.substr ( str.substr ( str.substr version ( + ( str.indexof version "MSC v." 0  ) ( str.len "MSC v."  )  ) ( - ( str.len version  ) ( + ( str.indexof version "MSC v." 0  ) ( str.len "MSC v."  )  )  )  ) 0 ( - ( str.indexof ( str.substr version ( + ( str.indexof version "MSC v." 0  ) ( str.len "MSC v."  )  ) ( - ( str.len version  ) ( + ( str.indexof version "MSC v." 0  ) ( str.len "MSC v."  )  )  )  ) " " 0  ) 0  )  ) 0 ( - ( + ( str.len ( str.substr ( str.substr version ( + ( str.indexof version "MSC v." 0  ) ( str.len "MSC v."  )  ) ( - ( str.len version  ) ( + ( str.indexof version "MSC v." 0  ) ( str.len "MSC v."  )  )  )  ) 0 ( - ( str.indexof ( str.substr version ( + ( str.indexof version "MSC v." 0  ) ( str.len "MSC v."  )  ) ( - ( str.len version  ) ( + ( str.indexof version "MSC v." 0  ) ( str.len "MSC v."  )  )  )  ) " " 0  ) 0  )  )  ) (- 2)  ) 0  )  )  )  ) 6  ) 13  ))

(assert ( ite ( str.prefixof "-" ( str.substr ( str.substr ( str.substr version ( + ( str.indexof version "MSC v." 0  ) ( str.len "MSC v."  )  ) ( - ( str.len version  ) ( + ( str.indexof version "MSC v." 0  ) ( str.len "MSC v."  )  )  )  ) 0 ( - ( str.indexof ( str.substr version ( + ( str.indexof version "MSC v." 0  ) ( str.len "MSC v."  )  ) ( - ( str.len version  ) ( + ( str.indexof version "MSC v." 0  ) ( str.len "MSC v."  )  )  )  ) " " 0  ) 0  )  ) 0 ( - ( + ( str.len ( str.substr ( str.substr version ( + ( str.indexof version "MSC v." 0  ) ( str.len "MSC v."  )  ) ( - ( str.len version  ) ( + ( str.indexof version "MSC v." 0  ) ( str.len "MSC v."  )  )  )  ) 0 ( - ( str.indexof ( str.substr version ( + ( str.indexof version "MSC v." 0  ) ( str.len "MSC v."  )  ) ( - ( str.len version  ) ( + ( str.indexof version "MSC v." 0  ) ( str.len "MSC v."  )  )  )  ) " " 0  ) 0  )  )  ) (- 2)  ) 0  )  )  ) ( and ( ite ( = (- 1) ( str.to.int ( str.substr ( str.substr ( str.substr ( str.substr version ( + ( str.indexof version "MSC v." 0  ) ( str.len "MSC v."  )  ) ( - ( str.len version  ) ( + ( str.indexof version "MSC v." 0  ) ( str.len "MSC v."  )  )  )  ) 0 ( - ( str.indexof ( str.substr version ( + ( str.indexof version "MSC v." 0  ) ( str.len "MSC v."  )  ) ( - ( str.len version  ) ( + ( str.indexof version "MSC v." 0  ) ( str.len "MSC v."  )  )  )  ) " " 0  ) 0  )  ) 0 ( - ( + ( str.len ( str.substr ( str.substr version ( + ( str.indexof version "MSC v." 0  ) ( str.len "MSC v."  )  ) ( - ( str.len version  ) ( + ( str.indexof version "MSC v." 0  ) ( str.len "MSC v."  )  )  )  ) 0 ( - ( str.indexof ( str.substr version ( + ( str.indexof version "MSC v." 0  ) ( str.len "MSC v."  )  ) ( - ( str.len version  ) ( + ( str.indexof version "MSC v." 0  ) ( str.len "MSC v."  )  )  )  ) " " 0  ) 0  )  )  ) (- 2)  ) 0  )  ) 1 ( - ( str.len ( str.substr ( str.substr ( str.substr version ( + ( str.indexof version "MSC v." 0  ) ( str.len "MSC v."  )  ) ( - ( str.len version  ) ( + ( str.indexof version "MSC v." 0  ) ( str.len "MSC v."  )  )  )  ) 0 ( - ( str.indexof ( str.substr version ( + ( str.indexof version "MSC v." 0  ) ( str.len "MSC v."  )  ) ( - ( str.len version  ) ( + ( str.indexof version "MSC v." 0  ) ( str.len "MSC v."  )  )  )  ) " " 0  ) 0  )  ) 0 ( - ( + ( str.len ( str.substr ( str.substr version ( + ( str.indexof version "MSC v." 0  ) ( str.len "MSC v."  )  ) ( - ( str.len version  ) ( + ( str.indexof version "MSC v." 0  ) ( str.len "MSC v."  )  )  )  ) 0 ( - ( str.indexof ( str.substr version ( + ( str.indexof version "MSC v." 0  ) ( str.len "MSC v."  )  ) ( - ( str.len version  ) ( + ( str.indexof version "MSC v." 0  ) ( str.len "MSC v."  )  )  )  ) " " 0  ) 0  )  )  ) (- 2)  ) 0  )  )  ) 1  )  )  )  ) false true  ) ( > ( str.len ( str.substr ( str.substr ( str.substr version ( + ( str.indexof version "MSC v." 0  ) ( str.len "MSC v."  )  ) ( - ( str.len version  ) ( + ( str.indexof version "MSC v." 0  ) ( str.len "MSC v."  )  )  )  ) 0 ( - ( str.indexof ( str.substr version ( + ( str.indexof version "MSC v." 0  ) ( str.len "MSC v."  )  ) ( - ( str.len version  ) ( + ( str.indexof version "MSC v." 0  ) ( str.len "MSC v."  )  )  )  ) " " 0  ) 0  )  ) 0 ( - ( + ( str.len ( str.substr ( str.substr version ( + ( str.indexof version "MSC v." 0  ) ( str.len "MSC v."  )  ) ( - ( str.len version  ) ( + ( str.indexof version "MSC v." 0  ) ( str.len "MSC v."  )  )  )  ) 0 ( - ( str.indexof ( str.substr version ( + ( str.indexof version "MSC v." 0  ) ( str.len "MSC v."  )  ) ( - ( str.len version  ) ( + ( str.indexof version "MSC v." 0  ) ( str.len "MSC v."  )  )  )  ) " " 0  ) 0  )  )  ) (- 2)  ) 0  )  )  ) 1  )  ) ( ite ( = (- 1) ( str.to.int ( str.substr ( str.substr ( str.substr version ( + ( str.indexof version "MSC v." 0  ) ( str.len "MSC v."  )  ) ( - ( str.len version  ) ( + ( str.indexof version "MSC v." 0  ) ( str.len "MSC v."  )  )  )  ) 0 ( - ( str.indexof ( str.substr version ( + ( str.indexof version "MSC v." 0  ) ( str.len "MSC v."  )  ) ( - ( str.len version  ) ( + ( str.indexof version "MSC v." 0  ) ( str.len "MSC v."  )  )  )  ) " " 0  ) 0  )  ) 0 ( - ( + ( str.len ( str.substr ( str.substr version ( + ( str.indexof version "MSC v." 0  ) ( str.len "MSC v."  )  ) ( - ( str.len version  ) ( + ( str.indexof version "MSC v." 0  ) ( str.len "MSC v."  )  )  )  ) 0 ( - ( str.indexof ( str.substr version ( + ( str.indexof version "MSC v." 0  ) ( str.len "MSC v."  )  ) ( - ( str.len version  ) ( + ( str.indexof version "MSC v." 0  ) ( str.len "MSC v."  )  )  )  ) " " 0  ) 0  )  )  ) (- 2)  ) 0  )  )  )  ) false true  )  ))

(assert ( str.in.re ( str.substr ( str.substr ( str.substr version ( + ( str.indexof version "MSC v." 0  ) ( str.len "MSC v."  )  ) ( - ( str.len version  ) ( + ( str.indexof version "MSC v." 0  ) ( str.len "MSC v."  )  )  )  ) 0 ( - ( str.indexof ( str.substr version ( + ( str.indexof version "MSC v." 0  ) ( str.len "MSC v."  )  ) ( - ( str.len version  ) ( + ( str.indexof version "MSC v." 0  ) ( str.len "MSC v."  )  )  )  ) " " 0  ) 0  )  ) 2 ( - 3 2  )  ) ( re.+ ( re.range "0" "9"  )  )  ))

(assert ( str.in.re ( str.substr ( str.substr ( str.substr version ( + ( str.indexof version "MSC v." 0  ) ( str.len "MSC v."  )  ) ( - ( str.len version  ) ( + ( str.indexof version "MSC v." 0  ) ( str.len "MSC v."  )  )  )  ) 0 ( - ( str.indexof ( str.substr version ( + ( str.indexof version "MSC v." 0  ) ( str.len "MSC v."  )  ) ( - ( str.len version  ) ( + ( str.indexof version "MSC v." 0  ) ( str.len "MSC v."  )  )  )  ) " " 0  ) 0  )  ) 0 ( - ( + ( str.len ( str.substr ( str.substr version ( + ( str.indexof version "MSC v." 0  ) ( str.len "MSC v."  )  ) ( - ( str.len version  ) ( + ( str.indexof version "MSC v." 0  ) ( str.len "MSC v."  )  )  )  ) 0 ( - ( str.indexof ( str.substr version ( + ( str.indexof version "MSC v." 0  ) ( str.len "MSC v."  )  ) ( - ( str.len version  ) ( + ( str.indexof version "MSC v." 0  ) ( str.len "MSC v."  )  )  )  ) " " 0  ) 0  )  )  ) (- 2)  ) 0  )  ) ( re.+ ( re.range "0" "9"  )  )  ))

(assert (not ( = ( str.indexof version "MSC v." 0  ) (- 1)  )))
(assert (not ( >= ( + ( - ( ite ( str.prefixof "-" ( str.substr ( str.substr ( str.substr version ( + ( str.indexof version "MSC v." 0  ) ( str.len "MSC v."  )  ) ( - ( str.len version  ) ( + ( str.indexof version "MSC v." 0  ) ( str.len "MSC v."  )  )  )  ) 0 ( - ( str.indexof ( str.substr version ( + ( str.indexof version "MSC v." 0  ) ( str.len "MSC v."  )  ) ( - ( str.len version  ) ( + ( str.indexof version "MSC v." 0  ) ( str.len "MSC v."  )  )  )  ) " " 0  ) 0  )  ) 0 ( - ( + ( str.len ( str.substr ( str.substr version ( + ( str.indexof version "MSC v." 0  ) ( str.len "MSC v."  )  ) ( - ( str.len version  ) ( + ( str.indexof version "MSC v." 0  ) ( str.len "MSC v."  )  )  )  ) 0 ( - ( str.indexof ( str.substr version ( + ( str.indexof version "MSC v." 0  ) ( str.len "MSC v."  )  ) ( - ( str.len version  ) ( + ( str.indexof version "MSC v." 0  ) ( str.len "MSC v."  )  )  )  ) " " 0  ) 0  )  )  ) (- 2)  ) 0  )  )  ) ( - ( str.to.int ( str.substr ( str.substr ( str.substr ( str.substr version ( + ( str.indexof version "MSC v." 0  ) ( str.len "MSC v."  )  ) ( - ( str.len version  ) ( + ( str.indexof version "MSC v." 0  ) ( str.len "MSC v."  )  )  )  ) 0 ( - ( str.indexof ( str.substr version ( + ( str.indexof version "MSC v." 0  ) ( str.len "MSC v."  )  ) ( - ( str.len version  ) ( + ( str.indexof version "MSC v." 0  ) ( str.len "MSC v."  )  )  )  ) " " 0  ) 0  )  ) 0 ( - ( + ( str.len ( str.substr ( str.substr version ( + ( str.indexof version "MSC v." 0  ) ( str.len "MSC v."  )  ) ( - ( str.len version  ) ( + ( str.indexof version "MSC v." 0  ) ( str.len "MSC v."  )  )  )  ) 0 ( - ( str.indexof ( str.substr version ( + ( str.indexof version "MSC v." 0  ) ( str.len "MSC v."  )  ) ( - ( str.len version  ) ( + ( str.indexof version "MSC v." 0  ) ( str.len "MSC v."  )  )  )  ) " " 0  ) 0  )  )  ) (- 2)  ) 0  )  ) 1 ( - ( str.len ( str.substr ( str.substr ( str.substr version ( + ( str.indexof version "MSC v." 0  ) ( str.len "MSC v."  )  ) ( - ( str.len version  ) ( + ( str.indexof version "MSC v." 0  ) ( str.len "MSC v."  )  )  )  ) 0 ( - ( str.indexof ( str.substr version ( + ( str.indexof version "MSC v." 0  ) ( str.len "MSC v."  )  ) ( - ( str.len version  ) ( + ( str.indexof version "MSC v." 0  ) ( str.len "MSC v."  )  )  )  ) " " 0  ) 0  )  ) 0 ( - ( + ( str.len ( str.substr ( str.substr version ( + ( str.indexof version "MSC v." 0  ) ( str.len "MSC v."  )  ) ( - ( str.len version  ) ( + ( str.indexof version "MSC v." 0  ) ( str.len "MSC v."  )  )  )  ) 0 ( - ( str.indexof ( str.substr version ( + ( str.indexof version "MSC v." 0  ) ( str.len "MSC v."  )  ) ( - ( str.len version  ) ( + ( str.indexof version "MSC v." 0  ) ( str.len "MSC v."  )  )  )  ) " " 0  ) 0  )  )  ) (- 2)  ) 0  )  )  ) 1  )  )  )  ) ( str.to.int ( str.substr ( str.substr ( str.substr version ( + ( str.indexof version "MSC v." 0  ) ( str.len "MSC v."  )  ) ( - ( str.len version  ) ( + ( str.indexof version "MSC v." 0  ) ( str.len "MSC v."  )  )  )  ) 0 ( - ( str.indexof ( str.substr version ( + ( str.indexof version "MSC v." 0  ) ( str.len "MSC v."  )  ) ( - ( str.len version  ) ( + ( str.indexof version "MSC v." 0  ) ( str.len "MSC v."  )  )  )  ) " " 0  ) 0  )  ) 0 ( - ( + ( str.len ( str.substr ( str.substr version ( + ( str.indexof version "MSC v." 0  ) ( str.len "MSC v."  )  ) ( - ( str.len version  ) ( + ( str.indexof version "MSC v." 0  ) ( str.len "MSC v."  )  )  )  ) 0 ( - ( str.indexof ( str.substr version ( + ( str.indexof version "MSC v." 0  ) ( str.len "MSC v."  )  ) ( - ( str.len version  ) ( + ( str.indexof version "MSC v." 0  ) ( str.len "MSC v."  )  )  )  ) " " 0  ) 0  )  )  ) (- 2)  ) 0  )  )  )  ) 6  ) 1  ) 8  )))


(check-sat)


(get-value (version))